Si diamond primitive cell (a = 5.43 A) - ready-made example case for vasp-auto
1.0
   0.0000000000   2.7150000000   2.7150000000
   2.7150000000   0.0000000000   2.7150000000
   2.7150000000   2.7150000000   0.0000000000
Si
2
Direct
   0.0000000000   0.0000000000   0.0000000000
   0.2500000000   0.2500000000   0.2500000000
